
  22   10
  10   10   10   10   10   10   10   10   10   10

   0   0   0   0   0   0   0   0   0   0   0   2 2 4 
   1  10  10  10  10  10  10  10  10  10  10   1 3 
   9  10  10  10  10  10  10  10  10  10  10   1 5 
   5  10  10  10  10  10  10  10  10  10  10   1 5 
   4  10  10  10  10  10  10  10  10  10  10   1 6 
   5  10  10  10  10  10  10  10  10  10  10   2 8 7 
   4  10  10  10  10  10  10  10  10  10  10   3 15 11 9 
   9  10  10  10  10  10  10  10  10  10  10   3 17 15 12 
   8  10  10  10  10  10  10  10  10  10  10   2 17 10 
   8  10  10  10  10  10  10  10  10  10  10   1 12 
  10  10  10  10  10  10  10  10  10  10  10   1 12 
   6  10  10  10  10  10  10  10  10  10  10   1 13 
  10  10  10  10  10  10  10  10  10  10  10   1 14 
   3  10  10  10  10  10  10  10  10  10  10   1 16 
   7  10  10  10  10  10  10  10  10  10  10   1 16 
  10  10  10  10  10  10  10  10  10  10  10   2 20 18 
   7  10  10  10  10  10  10  10  10  10  10   1 18 
   7  10  10  10  10  10  10  10  10  10  10   1 19 
   9  10  10  10  10  10  10  10  10  10  10   1 21 
   8  10  10  10  10  10  10  10  10  10  10   1 21 
   3  10  10  10  10  10  10  10  10  10  10   1 22
   0   0   0   0   0   0   0   0   0   0   0   0 
